c ! encoding i-pc 75
p cnf 139 136
56 -77 0
22 -79 0
34 -80 0
81 0
82 -83 0
-34 -84 0
-22 -86 0
89 -91 0
90 -91 0
91 -92 0
-56 -93 0
61 -95 0
-61 -96 0
59 -99 0
-59 -100 0
33 -102 0
-33 -103 0
7 -105 0
-7 -106 0
-59 -136 0
136 -137 0
-2 0
4 0
-6 0
-12 0
13 0
-18 0
21 0
26 0
-27 0
28 0
29 0
36 0
-38 0
-39 0
46 0
47 0
48 0
-49 0
50 0
-52 0
-53 0
57 0
60 0
62 0
63 0
67 0
70 0
-71 0
72 0
75 0
-135 136 0
-134 135 0
1 134 0
-133 135 0
-132 133 0
-131 132 0
-130 132 0
-127 128 0
11 127 0
-125 126 0
-124 125 0
-122 123 0
-40 122 0
-119 121 0
-117 118 0
-37 116 0
-54 114 0
-23 113 0
-73 112 0
55 112 0
-129 130 0
45 112 0
-121 123 0
-41 112 0
-112 118 0
31 112 0
30 112 0
-86 87 0
-111 125 0
-123 124 0
-81 83 0
-115 117 0
-97 98 0
51 112 0
-126 128 0
-32 112 0
-102 104 0
5 112 0
-78 79 0
64 112 0
-42 112 0
-74 115 0
-99 101 0
-76 77 96 100 103 106 111 120 127 131 134 0
-87 92 0
-104 105 0
-84 85 0
-85 86 0
-35 112 0
-101 102 0
25 112 0
20 112 0
-92 93 0
-95 97 0
-105 107 0
-75 139 0
43 112 0
-98 99 0
3 112 0
-68 112 0
-116 117 0
-83 84 0
58 112 0
-109 110 0
17 137 0
24 112 0
-44 112 0
19 112 0
-66 112 0
-118 119 0
-120 121 0
-93 94 0
-94 95 0
-128 129 0
-113 117 0
-110 138 0
-107 109 0
-9 112 0
-114 117 0
-11 108 126 0
-10 112 0
-65 112 0
-57 88 112 0
-15 112 0
-16 112 0
